DATASET = "thpack5";
INSTANCE = "036";

WIDTH = 233;
HEIGHT = 220;
LENGTH = 587;

NO_OF_SHAPES = 12;
size = [|
  41,39,26 |
  110,40,34 |
  94,77,52 |
  119,96,71 |
  67,63,47 |
  61,43,31 |
  72,53,35 |
  64,38,38 |
  110,71,45 |
  73,71,52 |
  95,92,55 |
  86,74,31 |
|];

verticality = [|
  1,1,1 |
  0,1,1 |
  1,1,1 |
  1,1,1 |
  1,1,1 |
  1,1,1 |
  0,1,1 |
  1,1,1 |
  0,1,1 |
  1,1,1 |
  1,1,1 |
  0,0,1 |
|];

box_count = [
  15,
  12,
  7,
  11,
  7,
  17,
  13,
  9,
  5,
  8,
  10,
  10,
];
